p cnf 410 1023
c ind 226 227 228 233 234 240 245 239 224 225 0
c ind 231 232 243 244 220 230 235 236 242 248 0
c ind 246 219 272 229 241 247 217 237 218 255 0
c ind 267 273 221 277 274 271 216 275 238 266 0
c ind 223 254 257 259 276 270 222 253 256 278 0
c ind 258 249 250 268 269 251 252 263 264 265 0
c ind 262 260 261 1 0
c ret 315 316 317 318 319 320 321 322 323 324 0
c ret 325 326 327 328 329 330 331 332 333 334 0
c ret 335 336 337 338 339 340 341 342 343 344 0
c ret 345 346 347 348 349 350 351 352 353 354 0
c ret 355 356 357 358 359 360 361 362 363 364 0
c ret 365 366 367 368 369 370 371 372 373 374 0
c ret 375 376 377 378 379 380 381 382 383 384 0
c ret 385 386 387 388 389 390 391 392 393 394 0
c ret 395 396 397 398 399 400 401 402 403 404 0
c ret 405 406 407 408 279 280 281 282 283 284 0
c ret 285 286 287 288 289 290 291 292 293 294 0
c ret 295 296 297 298 299 300 301 302 303 304 0
c ret 305 306 307 308 309 310 311 312 313 314 0
2 -3 -162 -189 342 0
2 3 -162 -189 -342 0
-2 189 0
-2 3 342 0
-2 162 0
-2 -3 -342 0
3 23 148 0
3 -4 148 0
3 45 148 0
-3 -148 0
-3 4 -23 -45 0
4 -5 22 0
4 5 19 20 0
-4 5 -19 0
-4 -5 -22 0
-4 5 -20 0
5 -6 -8 0
-5 6 0
-5 8 0
6 -7 -288 0
6 7 288 290 0
6 -288 -290 0
6 -7 287 290 0
-6 288 -290 0
-6 7 -288 290 0
-6 -7 -287 288 0
7 289 -291 0
-7 -289 0
-7 291 0
8 -9 -13 0
-8 9 0
-8 13 0
9 10 -12 0
9 10 -11 0
9 10 287 0
-9 -10 0
-9 11 12 -287 0
10 287 -288 -289 0
10 287 -289 290 0
10 287 288 289 -290 0
-10 -288 289 0
-10 289 290 0
-10 -287 0
-10 288 -289 -290 0
11 288 289 -291 0
11 288 -289 290 0
11 288 289 -290 0
-11 -288 0
-11 -289 -290 0
-11 289 290 291 0
12 -288 -289 0
-12 288 0
-12 289 0
13 -14 15 -287 0
-12 13 15 287 0
-13 -15 0
-13 14 -287 0
12 -13 287 0
14 288 290 0
14 288 289 0
-14 -288 0
-14 -289 -290 0
15 -16 -18 0
15 16 18 0
-15 16 -18 0
-15 -16 18 0
16 290 -291 0
16 -17 289 -291 0
-16 291 0
-16 17 -290 0
-16 -289 -290 0
17 287 288 0
-17 -287 0
-17 -288 0
18 -287 289 0
18 -288 289 0
-18 -289 0
-18 287 288 0
19 275 276 338 339 0
19 275 -276 338 -339 0
-19 -338 0
-19 -276 339 0
-19 -275 0
-19 276 -339 0
20 21 -275 -338 0
20 -21 275 276 -338 0
-20 275 -276 0
-20 -21 -275 0
-20 338 0
-20 21 275 0
6 9 -13 21 0
13 -21 0
-9 -21 0
-6 -21 0
22 -275 -338 0
22 275 276 338 0
-22 -276 338 0
-22 275 -338 0
-22 -275 338 0
23 24 29 38 43 0
-23 -43 0
-23 -38 0
-23 -24 0
-23 -29 0
24 -26 27 -266 0
24 25 26 27 0
-24 -27 0
-24 -25 26 0
-24 -26 266 0
25 -266 -329 0
25 266 329 0
-25 266 -329 0
-25 -266 329 0
-21 26 -338 0
-26 338 0
21 -26 0
-6 9 15 27 -28 0
-27 28 0
-15 -27 0
6 -27 0
-9 -27 0
28 287 288 -290 0
28 287 -288 289 0
28 287 288 -289 0
-28 -287 0
-28 -288 -289 0
-28 288 289 290 0
21 29 -30 0
-21 29 31 0
21 29 -33 0
-21 -29 -31 0
21 -29 30 33 0
30 -274 337 0
-30 274 0
-30 -337 0
31 -274 -337 0
31 -32 -274 0
31 32 274 337 0
-31 -32 274 0
-31 32 -274 337 0
-31 274 -337 0
32 304 305 -338 0
-32 338 0
-32 -305 0
-32 -304 0
33 34 274 -337 0
-33 -274 0
-33 337 0
-33 -34 0
34 -35 296 297 -340 0
-34 -296 0
-34 35 0
-34 340 0
-34 -297 0
15 35 -36 -37 0
-35 37 0
-35 36 0
-15 -35 0
36 -287 -288 0
36 -287 -289 -290 0
-36 287 0
-36 288 290 0
-36 288 289 0
6 -9 37 0
-6 -37 0
9 -37 0
-26 38 39 42 0
26 38 41 42 0
-38 -42 0
26 -38 -41 0
-26 -38 -39 0
39 -40 217 0
39 40 -217 0
-39 -40 -217 0
-39 40 217 0
40 -304 337 0
40 -305 337 0
-40 -337 0
-40 304 305 0
41 -217 -280 0
41 217 280 0
-41 217 -280 0
-41 -217 280 0
21 -34 42 -280 0
-42 280 0
-21 -42 0
34 -42 0
8 -26 43 -258 0
8 26 43 44 0
-8 -43 0
26 -43 -44 0
-26 -43 258 0
44 -258 -321 0
44 258 321 0
-44 258 -321 0
-44 -258 321 0
45 46 -48 -52 219 0
45 -46 -48 -52 -219 0
-45 52 0
-45 46 -219 0
-45 48 0
-45 -46 219 0
46 47 -282 0
-46 282 0
-46 -47 0
-13 -37 47 0
13 -47 0
37 -47 0
48 49 51 0
48 -49 50 0
-48 -49 -50 0
-48 49 -51 0
-5 49 -329 338 -339 0
5 -49 0
-49 329 0
-49 339 0
-49 -338 0
50 -268 304 0
50 268 -269 305 0
50 268 -304 0
50 269 304 -305 0
-50 -268 -304 0
-50 268 -269 304 -305 0
-50 268 269 304 305 0
51 -268 331 0
51 268 -269 332 0
51 268 -331 0
51 269 331 -332 0
-51 -268 -331 0
-51 268 -269 331 -332 0
-51 268 269 331 332 0
5 52 -55 -56 0
52 53 -55 -56 0
-52 56 0
-52 55 0
-5 -52 -53 0
47 53 -54 -258 0
44 47 53 54 0
-47 -53 0
-53 -54 258 0
-44 -53 54 0
54 338 -339 0
-54 -338 0
-54 339 0
55 -277 -340 0
-26 55 -277 0
26 55 277 340 0
-26 -55 277 0
26 -55 -277 340 0
-55 277 -340 0
56 -57 64 -66 -83 0
-56 83 0
-56 57 0
-56 66 0
-56 -64 0
27 57 -58 -63 0
-27 57 -58 -61 0
-57 58 0
-27 -57 61 0
27 -57 63 0
27 58 60 0
58 59 60 0
-58 -60 0
-27 -58 -59 0
59 -266 -281 0
25 59 281 0
-59 266 -281 0
-25 -59 281 0
-47 60 -258 -282 0
44 -47 60 282 0
47 -60 0
-60 258 -282 0
-44 -60 282 0
61 -62 218 281 0
61 218 259 -281 0
-61 -218 0
-61 -259 -281 0
-61 62 281 0
62 -259 -322 0
62 259 322 0
-62 259 -322 0
-62 -259 322 0
-62 63 -218 -281 0
-62 63 218 281 0
62 -63 0
-63 -218 281 0
-63 218 -281 0
64 -272 335 0
35 64 272 -335 0
64 65 272 -335 0
-64 -272 -335 0
-64 272 335 0
-35 -64 -65 272 0
65 296 297 0
-65 -296 0
-65 -297 0
66 67 71 77 246 0
66 -67 71 77 -246 0
-66 -71 0
-66 67 -246 0
-66 -77 0
-66 -67 246 0
67 -68 -309 0
67 68 -283 0
-67 68 283 0
-67 -68 309 0
68 69 70 -284 -321 0
-68 321 0
-68 -70 0
-68 284 0
-68 -69 0
69 314 -315 0
-69 -314 0
-69 315 0
70 292 293 0
-70 -292 0
-70 -293 0
71 -72 75 -285 0
71 -72 -75 285 0
71 -72 75 286 0
-71 72 0
-71 -75 -285 0
-71 75 285 -286 0
72 -73 298 -333 0
72 -73 -298 333 0
72 -73 -74 298 0
-72 73 0
-72 -298 -333 0
-72 74 298 333 0
73 323 -324 0
73 -323 324 325 0
-73 -323 -324 0
-73 324 -325 0
-73 323 324 0
74 299 -334 0
74 -299 334 0
-74 -299 -334 0
-74 299 334 0
75 -76 323 0
75 76 -323 0
-75 -76 -323 0
-75 76 323 0
76 324 -325 0
-76 -324 0
-76 325 0
77 -78 81 -285 0
77 -78 -81 285 0
77 -78 81 286 0
-77 78 0
-77 -81 -285 0
-77 81 285 -286 0
78 -79 80 0
-78 79 0
-78 -80 0
79 326 -327 0
79 -326 327 328 0
-79 -326 -327 0
-79 327 -328 0
-79 326 327 0
80 -300 -333 0
80 300 -301 333 -334 0
80 300 301 333 334 0
-80 -300 333 0
-80 300 -301 334 0
-80 300 -333 0
-80 301 333 -334 0
81 -82 326 0
81 82 -326 0
-81 -82 -326 0
-81 82 326 0
82 327 -328 0
-82 -327 0
-82 328 0
83 -84 -109 -125 -141 0
-83 141 0
-83 84 0
-83 125 0
-83 109 0
84 -85 -101 -102 -104 0
-84 104 0
-84 85 0
-84 102 0
-84 101 0
85 -86 -95 -96 -97 0
-85 97 0
-85 86 0
-85 96 0
-85 95 0
86 87 -88 92 0
86 -88 92 -94 0
-86 88 0
-86 -92 0
-86 -87 94 0
87 -326 -327 0
87 -326 -328 0
-87 326 0
-87 327 328 0
88 89 90 -247 0
88 -89 -90 -247 0
88 89 90 -91 0
88 -89 -90 -91 0
-88 -89 90 0
-88 89 -90 0
-88 91 247 0
89 314 315 0
-89 -314 0
-89 -315 0
90 251 252 0
-90 -251 0
-90 -252 0
91 -248 -311 0
91 248 311 0
-91 248 -311 0
-91 -248 311 0
65 92 -93 0
65 92 302 -337 0
-65 -92 0
-92 93 -302 0
-92 93 337 0
93 -280 303 0
-93 280 0
-93 -303 0
94 -263 -264 0
94 -263 -265 0
-94 263 0
-94 264 265 0
95 -229 270 -292 333 0
95 229 -270 292 -333 0
95 229 270 292 333 0
95 -229 -270 -292 -333 0
-95 -229 292 0
-95 229 -292 0
-95 270 -333 0
-95 -270 333 0
96 -220 243 -283 306 0
96 220 -243 283 -306 0
96 220 243 283 306 0
96 -220 -243 -283 -306 0
-96 -220 283 0
-96 220 -283 0
-96 243 -306 0
-96 -243 306 0
97 -100 -241 0
97 98 -99 0
97 98 -241 0
97 -99 -100 0
-97 99 241 0
-97 -98 100 0
98 -323 -324 0
98 -323 -325 0
-98 323 0
-98 324 325 0
99 -242 -305 0
99 242 305 0
-99 242 -305 0
-99 -242 305 0
100 -260 -261 0
100 -260 -262 0
-100 260 0
-100 261 262 0
101 -241 253 -304 316 0
101 241 -253 304 -316 0
101 241 253 304 316 0
101 -241 -253 -304 -316 0
-101 -241 304 0
-101 241 -304 0
-101 253 -316 0
-101 -253 316 0
102 103 -270 0
102 103 271 334 0
102 103 -271 -334 0
-102 -103 0
-102 270 271 -334 0
-102 270 -271 334 0
103 235 -236 -298 0
103 -235 298 299 0
103 235 -236 299 0
-103 298 -299 0
-103 -235 -298 0
-103 235 236 0
104 -105 -107 -229 0
104 -105 -107 -108 0
-104 107 0
-104 105 0
-104 108 229 0
-98 105 106 0
100 105 106 0
-105 -106 0
98 -100 -105 0
106 235 236 -299 0
106 -235 298 -299 0
106 235 236 -298 0
-106 298 299 0
-106 -235 -298 0
-106 235 -236 0
107 -244 273 -307 336 0
107 244 -273 307 -336 0
107 244 273 307 336 0
107 -244 -273 -307 -336 0
-107 -244 307 0
-107 244 -307 0
-107 273 -336 0
-107 -273 336 0
108 -230 -293 0
108 230 293 0
-108 230 -293 0
-108 -230 293 0
109 -110 -115 -118 -120 0
-109 120 0
-109 110 0
-109 118 0
-109 115 0
110 111 112 113 114 0
110 111 -112 -113 114 0
-110 -114 0
-110 -112 113 0
-110 -111 0
-110 112 -113 0
111 252 314 -315 0
111 -251 314 -315 0
-111 315 0
-111 -314 0
-111 251 -252 0
112 253 -254 0
-112 -253 0
-112 254 0
113 316 -317 0
-113 -316 0
-113 317 0
114 222 223 -286 0
114 222 223 -285 0
-114 -222 0
-114 -223 0
-114 285 286 0
115 -117 -285 0
115 -117 -286 0
115 -116 -117 0
-115 117 0
-115 116 285 286 0
116 222 223 0
-116 -222 0
-116 -223 0
117 -247 -310 0
117 247 310 0
-117 247 -310 0
-117 -247 310 0
118 119 252 0
118 119 -251 0
-69 118 119 0
-118 -119 0
69 -118 251 -252 0
119 249 -250 -312 0
119 249 -250 313 0
-119 -249 0
-119 250 0
-119 312 -313 0
-81 120 -121 0
75 120 123 0
75 -81 120 0
120 -121 123 0
-75 -120 121 0
81 -120 -123 0
121 -122 260 0
121 122 -260 0
-121 -122 -260 0
-121 122 260 0
122 261 -262 0
-122 -261 0
-122 262 0
123 -124 263 0
123 124 -263 0
-123 -124 -263 0
-123 124 263 0
124 264 -265 0
-124 -264 0
-124 265 0
125 -126 -127 -128 -130 0
-125 130 0
-125 126 0
-125 128 0
-125 127 0
126 222 285 -342 -343 0
126 -222 -285 -342 -343 0
-126 343 0
-126 -222 285 0
-126 342 0
-126 222 -285 0
127 -221 256 -284 319 0
127 221 -256 284 -319 0
127 221 256 284 319 0
127 -221 -256 -284 -319 0
-127 -221 284 0
-127 221 -284 0
-127 256 -319 0
-127 -256 319 0
-87 128 -129 0
94 128 -129 0
-128 129 0
87 -94 -128 0
129 -267 278 -330 341 0
129 267 -278 330 -341 0
129 267 278 330 341 0
129 -267 -278 -330 -341 0
-129 -267 330 0
-129 267 -330 0
-129 278 -341 0
-129 -278 341 0
130 -131 136 137 -138 0
130 -131 -136 -137 -138 0
-130 138 0
-130 -136 137 0
-130 131 0
-130 136 -137 0
131 132 133 -134 -135 0
131 -132 -133 -134 -135 0
131 132 133 134 135 0
131 -132 -133 134 135 0
-131 132 -133 0
-131 -132 133 0
-131 134 -135 0
-131 -134 135 0
132 216 278 0
-132 -216 0
-132 -278 0
133 279 341 0
-133 -279 0
-133 -341 0
134 256 -257 0
-134 -256 0
-134 257 0
135 319 -320 0
-135 -319 0
-135 320 0
136 249 250 0
-136 -249 0
-136 -250 0
137 312 313 0
-137 -312 0
-137 -313 0
138 -140 313 0
138 -139 -140 0
138 -140 -312 0
-138 140 0
-138 139 312 -313 0
139 249 -250 0
-139 -249 0
-139 250 0
140 -255 -318 0
140 255 318 0
-140 255 -318 0
-140 -255 318 0
81 141 -142 -145 0
-123 141 -142 -145 0
-141 145 0
-141 142 0
-81 123 -141 0
-73 142 144 0
142 143 144 0
-142 -144 0
73 -142 -143 0
143 260 -261 0
143 -260 261 262 0
-143 -260 -261 0
-143 261 -262 0
-143 260 261 0
144 -237 300 0
144 237 -238 301 0
144 237 -300 0
144 238 300 -301 0
-144 -237 -300 0
-144 237 -238 300 -301 0
-144 237 238 300 301 0
-79 145 -146 -147 0
79 145 146 -147 0
-145 147 0
-79 -145 146 0
79 -145 -146 0
146 263 -264 0
146 -263 264 265 0
-146 -263 -264 0
-146 264 -265 0
-146 263 264 0
73 121 147 0
-75 -143 147 0
73 -75 147 0
121 -143 147 0
-73 143 -147 0
75 -121 -147 0
123 148 -149 152 -153 0
-148 149 0
-148 -152 0
-123 -148 0
-148 153 0
-116 121 149 -150 -151 0
-149 151 0
116 -149 0
-149 150 0
-121 -149 0
150 260 261 0
-150 -260 0
-150 -261 0
151 251 252 263 264 0
-151 -264 0
-151 -263 0
-151 -251 0
-151 -252 0
152 -268 270 0
152 268 269 -270 0
152 269 270 -271 0
-152 268 -269 0
-152 -268 -270 0
-152 268 270 271 0
153 -154 -158 -160 -161 0
-153 161 0
-153 154 0
-153 160 0
-153 158 0
154 155 -156 -157 0
-154 157 0
-154 156 0
-154 -155 0
155 268 -269 -270 0
155 268 -269 271 0
-155 -268 0
-155 269 0
-155 270 -271 0
156 273 274 277 343 0
-156 -343 0
-156 -277 0
-156 -273 0
-156 -274 0
157 259 266 267 272 0
-157 -272 0
-157 -267 0
-157 -259 0
-157 -266 0
-132 158 -159 249 250 0
-158 -249 0
-158 159 0
132 -158 0
-158 -250 0
159 217 218 275 276 0
-159 -276 0
-159 -275 0
-159 -217 0
-159 -218 0
160 255 256 257 258 0
-160 -258 0
-160 -257 0
-160 -255 0
-160 -256 0
161 219 221 253 254 0
-161 -254 0
-161 -253 0
-161 -219 0
-161 -221 0
162 -163 -174 -177 -182 0
-162 182 0
-162 163 0
-162 177 0
-162 174 0
163 -164 -167 -168 -171 0
-163 171 0
-163 164 0
-163 168 0
-163 167 0
164 165 166 263 326 0
164 165 166 -263 -326 0
-164 -165 0
-164 -263 326 0
-164 -166 0
-164 263 -326 0
165 -260 323 0
-165 260 0
-165 -323 0
166 -262 325 0
-166 262 0
-166 -325 0
167 -250 254 -313 317 0
167 250 -254 313 -317 0
167 250 254 313 317 0
167 -250 -254 -313 -317 0
-167 -250 313 0
-167 250 -313 0
-167 254 -317 0
-167 -254 317 0
168 169 170 228 291 0
168 169 170 -228 -291 0
-168 -169 0
-168 -228 291 0
-168 -170 0
-168 228 -291 0
169 231 -294 0
-169 -231 0
-169 294 0
170 -246 309 0
-170 246 0
-170 -309 0
171 172 173 249 312 0
171 172 173 -249 -312 0
-171 -172 0
-171 -249 312 0
-171 -173 0
-171 249 -312 0
172 262 -325 0
-172 -262 0
-172 325 0
173 246 -309 0
-173 -246 0
-173 309 0
174 -175 -176 252 315 0
174 -175 -176 -252 -315 0
-174 176 0
-174 -252 315 0
-174 175 0
-174 252 -315 0
175 -234 -296 0
175 233 297 0
175 233 -234 0
175 -296 297 0
-175 -233 296 0
-175 234 -297 0
176 -216 245 -279 308 0
176 216 -245 279 -308 0
176 216 245 279 308 0
176 -216 -245 -279 -308 0
-176 -216 279 0
-176 216 -279 0
-176 245 -308 0
-176 -245 308 0
177 -178 -181 223 286 0
177 -178 -181 -223 -286 0
-177 181 0
-177 -223 286 0
-177 178 0
-177 223 -286 0
178 179 180 257 320 0
178 179 180 -257 -320 0
-178 -179 0
-178 -257 320 0
-178 -180 0
-178 257 -320 0
179 239 -302 0
-179 -239 0
-179 302 0
180 260 -323 0
-180 -260 0
-180 323 0
181 231 239 0
181 -294 -302 0
181 231 -302 0
181 239 -294 0
-181 -231 294 0
-181 -239 302 0
-95 -129 182 -183 -184 0
-182 184 0
95 -182 0
-182 183 0
129 -182 0
-63 -96 -101 -107 183 0
107 -183 0
63 -183 0
101 -183 0
96 -183 0
184 185 -186 225 288 0
184 185 -186 -225 -288 0
-184 -185 0
-184 225 -288 0
-184 186 0
-184 -225 288 0
185 226 -289 0
-185 -226 0
-185 289 0
186 187 188 251 314 0
186 187 188 -251 -314 0
-186 -187 0
-186 -251 314 0
-186 -188 0
-186 251 -314 0
187 -234 297 0
-187 234 0
-187 -297 0
188 -226 289 0
-188 226 0
-188 -289 0
189 -190 -194 -199 -209 0
-189 209 0
-189 190 0
-189 199 0
-189 194 0
-108 190 -191 -192 -193 0
-190 193 0
-190 191 0
-190 192 0
108 -190 0
191 -271 -334 0
191 271 334 0
-191 271 -334 0
-191 -271 334 0
192 -236 240 -299 303 0
192 236 -240 299 -303 0
192 236 240 299 303 0
192 -236 -240 -299 -303 0
-192 -236 299 0
-192 236 -299 0
-192 240 -303 0
-192 -240 303 0
-91 -99 -117 -140 193 0
140 -193 0
91 -193 0
117 -193 0
99 -193 0
194 -195 -196 -197 -198 0
-194 198 0
-194 195 0
-194 197 0
-194 196 0
195 -261 268 -324 331 0
195 261 -268 324 -331 0
195 261 268 324 331 0
195 -261 -268 -324 -331 0
-195 -261 324 0
-195 261 -324 0
-195 268 -331 0
-195 -268 331 0
196 -224 237 -287 300 0
196 224 -237 287 -300 0
196 224 237 287 300 0
196 -224 -237 -287 -300 0
-196 -224 287 0
-196 224 -287 0
-196 237 -300 0
-196 -237 300 0
197 -227 265 -290 328 0
197 227 -265 290 -328 0
197 227 265 290 328 0
197 -227 -265 -290 -328 0
-197 -227 290 0
-197 227 -290 0
-197 265 -328 0
-197 -265 328 0
198 -219 264 -282 327 0
198 219 -264 282 -327 0
198 219 264 282 327 0
198 -219 -264 -282 -327 0
-198 -219 282 0
-198 219 -282 0
-198 264 -327 0
-198 -264 327 0
-44 199 -200 -201 -202 0
-199 202 0
44 -199 0
-199 201 0
-199 200 0
200 -272 -335 0
200 272 335 0
-200 272 -335 0
-200 -272 335 0
-25 201 -232 -295 0
-25 201 232 295 0
25 -201 0
-201 -232 295 0
-201 232 -295 0
202 203 204 -205 -207 0
-202 -203 0
-202 207 0
-202 205 0
-202 -204 0
203 -235 298 0
-203 235 0
-203 -298 0
204 238 -301 0
-204 -238 0
-204 301 0
205 206 -233 0
205 206 296 0
-205 -206 0
-205 233 -296 0
206 -238 301 0
-206 238 0
-206 -301 0
207 208 222 285 -343 0
207 208 -222 -285 -343 0
-207 -208 0
-207 -222 285 0
-207 343 0
-207 222 -285 0
208 235 -298 0
-208 -235 0
-208 298 0
-41 -127 209 -210 -211 0
-209 211 0
41 -209 0
127 -209 0
-209 210 0
210 -277 -340 0
210 277 340 0
-210 277 -340 0
-210 -277 340 0
211 -212 213 -214 -215 0
-211 215 0
-211 212 0
-211 214 0
-211 -213 0
212 -276 -339 0
212 276 339 0
-212 276 -339 0
-212 -276 339 0
213 275 -338 0
213 -275 338 0
-213 -275 -338 0
-213 275 338 0
214 -274 -337 0
214 274 337 0
-214 274 -337 0
-214 -274 337 0
215 -269 -332 0
215 269 332 0
-215 269 -332 0
-215 -269 332 0
1 2 0
-1 -2 0
409 0

